(declare-fun var0 () String)
(declare-fun var1 () String)
(declare-fun var2 () String)
(declare-fun var3 () String)
(declare-fun var4 () String)
(declare-fun var5 () String)
(declare-fun var6 () String)
(declare-fun var7 () String)
(declare-fun var8 () String)
(declare-fun var9 () String)
(declare-fun var10 () String)
(declare-fun var11 () String)
(declare-fun var12 () String)
(declare-fun var13 () String)
(declare-fun var14 () String)
(declare-fun var15 () String)
(declare-fun var16 () String)
(declare-fun var17 () String)
(declare-fun var18 () String)
(declare-fun var19 () String)
(declare-fun var20 () String)
(declare-fun var21 () String)
(declare-fun var22 () String)
(declare-fun var23 () String)
(declare-fun var24 () String)
(declare-fun var25 () String)
(declare-fun var26 () String)
(declare-fun var27 () String)
(declare-fun var28 () String)
(declare-fun var29 () String)
(declare-fun var30 () String)
(declare-fun var31 () String)
(declare-fun var32 () String)
(declare-fun var33 () String)
(declare-fun var34 () String)
(declare-fun var35 () String)
(declare-fun var36 () String)
(declare-fun var37 () String)
(declare-fun var38 () String)
(declare-fun var39 () String)
(declare-fun var40 () String)
(declare-fun var41 () String)
(declare-fun var42 () String)
(declare-fun var43 () String)
(declare-fun var44 () String)
(declare-fun var45 () String)
(declare-fun var46 () String)
(declare-fun var47 () String)
(declare-fun var48 () String)
(declare-fun var49 () String)
(declare-fun var50 () String)
(declare-fun var51 () String)
(declare-fun var52 () String)
(declare-fun var53 () String)
(declare-fun var54 () String)
(declare-fun var55 () String)
(declare-fun var56 () String)
(declare-fun var57 () String)
(declare-fun var58 () String)
(declare-fun var59 () String)
(declare-fun var60 () String)
(assert (= var0 (Concat var1 var2)))
(assert (= var2 (Concat var3 var4)))
(assert (= var4 (Concat var5 var6)))
(assert (= var6 (Concat var7 var8)))
(assert (= var8 (Concat var9 var10)))
(assert (= var10 (Concat var11 var12)))
(assert (= var12 (Concat var13 var14)))
(assert (= var14 (Concat var15 var16)))
(assert (= var16 (Concat var17 var18)))
(assert (= var18 (Concat var19 var20)))
(assert (= var20 (Concat var21 var22)))
(assert (= var22 (Concat var23 var24)))
(assert (= var24 (Concat var25 var26)))
(assert (= var26 (Concat var27 var28)))
(assert (= var28 (Concat var29 var30)))
(assert (= var30 (Concat var31 var32)))
(assert (= var32 (Concat var33 var34)))
(assert (= var34 (Concat var35 var36)))
(assert (= var36 (Concat var37 var38)))
(assert (= var38 (Concat var39 var40)))
(assert (= var40 (Concat var41 var42)))
(assert (= var42 (Concat var43 var44)))
(assert (= var44 (Concat var45 var46)))
(assert (= var46 (Concat var47 var48)))
(assert (= var48 (Concat var49 var50)))
(assert (= var50 (Concat var51 var52)))
(assert (= var52 (Concat var53 var54)))
(assert (= var54 (Concat var55 var56)))
(assert (= var56 (Concat var57 var58)))
(assert (= var58 (Concat var59 var60)))
(assert (= var0 "solution"))
(assert (= "a" (CharAt var19 476)))
(assert (= "$" (CharAt var56 786)))
(assert (= "d" (CharAt var57 326)))
(assert (= "H" (CharAt var52 53)))
(assert (= "C" (CharAt var10 23)))
(assert (= "m" (CharAt var6 163)))
(assert (= "_" (CharAt var11 645)))
(assert (= "l" (CharAt var11 306)))
(assert (= "Q" (CharAt var1 922)))
(assert (= "o" (CharAt var22 504)))
(assert (= ")" (CharAt var26 456)))
(assert (= "8" (CharAt var38 973)))
(assert (= "^" (CharAt var38 587)))
(assert (= "T" (CharAt var23 6)))
(assert (= "F" (CharAt var44 90)))
(assert (= "b" (CharAt var25 786)))
(assert (= ">" (CharAt var48 179)))
(assert (= "?" (CharAt var44 747)))
(assert (= "s" (CharAt var26 69)))
(assert (= "^" (CharAt var56 753)))
(assert (= "5" (CharAt var40 915)))
(assert (= "I" (CharAt var33 897)))
(assert (= "Z" (CharAt var50 583)))
(assert (= "P" (CharAt var22 794)))
(assert (= ":" (CharAt var47 295)))
(assert (= "A" (CharAt var3 710)))
(assert (= "F" (CharAt var49 367)))
(assert (= ";" (CharAt var51 584)))
(assert (= "4" (CharAt var46 910)))
(assert (= "S" (CharAt var44 881)))
(assert (= "O" (CharAt var1 505)))
(assert (= "\"" (CharAt var54 38)))
(assert (= "6" (CharAt var36 288)))
(assert (= "\\" (CharAt var59 598)))
(assert (= "?" (CharAt var28 951)))
(assert (= ":" (CharAt var57 446)))
(assert (= "D" (CharAt var6 834)))
(assert (= "m" (CharAt var53 531)))
(assert (= "g" (CharAt var16 844)))
(assert (= "'" (CharAt var20 903)))
(assert (= "O" (CharAt var37 925)))
(assert (= "G" (CharAt var15 464)))
(assert (= "z" (CharAt var38 370)))
(assert (= "b" (CharAt var14 737)))
(assert (= "I" (CharAt var35 779)))
(assert (= "f" (CharAt var33 780)))
(assert (= "E" (CharAt var2 925)))
(assert (= "c" (CharAt var3 165)))
(assert (= "\\" (CharAt var15 416)))
(assert (= "f" (CharAt var17 646)))
(assert (= "h" (CharAt var53 215)))
(assert (= "\\" (CharAt var46 526)))
(assert (= "K" (CharAt var21 353)))
(assert (= "\\" (CharAt var30 76)))
(assert (= "l" (CharAt var7 421)))
(assert (= ";" (CharAt var18 639)))
(assert (= "4" (CharAt var25 210)))
(assert (= "3" (CharAt var6 384)))
(assert (= "1" (CharAt var41 384)))
(assert (= "T" (CharAt var13 810)))
(assert (= "%" (CharAt var51 432)))
(assert (= "0" (CharAt var57 417)))
(assert (= "h" (CharAt var2 978)))
(assert (= "9" (CharAt var31 283)))
(assert (= "a" (CharAt var56 724)))
(assert (= "b" (CharAt var43 204)))
(assert (= "E" (CharAt var5 962)))
(assert (= "q" (CharAt var5 309)))
(assert (= "e" (CharAt var47 33)))
(assert (= "V" (CharAt var4 998)))
(assert (= "3" (CharAt var15 112)))
(assert (= "s" (CharAt var18 198)))
(assert (= "2" (CharAt var39 472)))
(assert (= "7" (CharAt var60 278)))
(assert (= "2" (CharAt var24 322)))
(assert (= "&" (CharAt var6 195)))
(assert (= "3" (CharAt var5 794)))
(assert (= "+" (CharAt var55 435)))
(assert (= "K" (CharAt var5 934)))
(assert (= "~" (CharAt var18 109)))
(assert (= "$" (CharAt var55 42)))
(assert (= "C" (CharAt var46 640)))
(assert (= "+" (CharAt var53 272)))
(assert (= "]" (CharAt var56 578)))
(assert (= "d" (CharAt var9 34)))
(assert (= "Q" (CharAt var31 425)))
(assert (= "P" (CharAt var34 575)))
(assert (= "0" (CharAt var43 438)))
(assert (= "H" (CharAt var45 674)))
(assert (= "{" (CharAt var53 340)))
(assert (= "x" (CharAt var60 743)))
(assert (= "q" (CharAt var32 705)))
(assert (= "h" (CharAt var18 515)))
(assert (= "\\" (CharAt var23 163)))
(assert (= "G" (CharAt var23 384)))
(assert (= "h" (CharAt var36 681)))
(assert (= "8" (CharAt var49 770)))
(assert (= "w" (CharAt var19 160)))
(assert (= "+" (CharAt var11 802)))
(assert (= "_" (CharAt var3 646)))
(assert (= "Q" (CharAt var58 310)))
(assert (= "K" (CharAt var1 918)))
(assert (= "7" (CharAt var32 907)))
(assert (= "8" (CharAt var47 633)))
(assert (= "x" (CharAt var49 516)))
(assert (= "a" (CharAt var28 300)))
(assert (= "y" (CharAt var48 41)))
(assert (= "=" (CharAt var32 395)))
(assert (= "(" (CharAt var9 756)))
(assert (= "Q" (CharAt var27 892)))
(assert (= "z" (CharAt var41 652)))
(assert (= "(" (CharAt var17 464)))
(assert (= "U" (CharAt var15 949)))
(assert (= "$" (CharAt var45 516)))
(assert (= "9" (CharAt var39 663)))
(assert (= "|" (CharAt var42 55)))
(assert (= "z" (CharAt var42 681)))
(assert (= "]" (CharAt var26 410)))
(assert (= "\\" (CharAt var36 401)))
(assert (= "X" (CharAt var25 789)))
(assert (= "G" (CharAt var57 507)))
(assert (= "~" (CharAt var50 361)))
(assert (= "c" (CharAt var15 735)))
(assert (= "w" (CharAt var59 769)))
(assert (= "E" (CharAt var60 24)))
(assert (= "." (CharAt var55 356)))
(assert (= ")" (CharAt var13 356)))
(assert (= "&" (CharAt var44 808)))
(assert (= "9" (CharAt var58 347)))
(assert (= "(" (CharAt var24 16)))
(assert (= "2" (CharAt var9 30)))
(assert (= "%" (CharAt var30 89)))
(assert (= "1" (CharAt var60 636)))
(assert (= "4" (CharAt var10 165)))
(assert (= "*" (CharAt var5 397)))
(assert (= "W" (CharAt var40 757)))
(assert (= "O" (CharAt var38 787)))
(assert (= "R" (CharAt var8 52)))
(assert (= "|" (CharAt var47 521)))
(assert (= "}" (CharAt var12 470)))
(assert (= ">" (CharAt var44 517)))
(assert (= "@" (CharAt var27 457)))
(assert (= "." (CharAt var17 79)))
(assert (= "x" (CharAt var45 455)))
(assert (= "k" (CharAt var7 865)))
(assert (= "=" (CharAt var20 287)))
(assert (= "k" (CharAt var41 812)))
(assert (= "R" (CharAt var1 195)))
(assert (= "$" (CharAt var57 744)))
(assert (= "V" (CharAt var4 913)))
(assert (= "k" (CharAt var51 726)))
(assert (= "J" (CharAt var58 886)))
(assert (= "v" (CharAt var51 862)))
(assert (= "5" (CharAt var35 157)))
(assert (= "%" (CharAt var31 551)))
(assert (= "{" (CharAt var31 472)))
(assert (= "#" (CharAt var36 345)))
(assert (= "K" (CharAt var43 35)))
(assert (= "," (CharAt var33 976)))
(assert (= "g" (CharAt var30 213)))
(assert (= ")" (CharAt var43 483)))
(assert (= "I" (CharAt var34 705)))
(assert (= "o" (CharAt var0 699)))
(assert (= "T" (CharAt var53 649)))
(assert (= "_" (CharAt var52 887)))
(assert (= "/" (CharAt var18 802)))
(assert (= "U" (CharAt var42 885)))
(assert (= "~" (CharAt var43 974)))
(assert (= "@" (CharAt var40 349)))
(assert (= "9" (CharAt var33 223)))
(assert (= "\\" (CharAt var8 152)))
(assert (= "N" (CharAt var57 82)))
(assert (= "l" (CharAt var43 820)))
(assert (= "f" (CharAt var58 452)))
(assert (= "p" (CharAt var37 310)))
(assert (= "?" (CharAt var32 471)))
(assert (= ")" (CharAt var0 905)))
(assert (= "I" (CharAt var4 442)))
(assert (= "M" (CharAt var26 296)))
(assert (= "r" (CharAt var55 744)))
(assert (= "a" (CharAt var4 651)))
(assert (= "w" (CharAt var33 784)))
(assert (= "~" (CharAt var6 569)))
(assert (= "2" (CharAt var20 56)))
(assert (= "'" (CharAt var38 791)))
(assert (= "L" (CharAt var18 525)))
(assert (= "L" (CharAt var4 754)))
(assert (= "f" (CharAt var57 379)))
(assert (= "u" (CharAt var2 168)))
(assert (= "(" (CharAt var22 177)))
(assert (= "w" (CharAt var50 101)))
(assert (= "4" (CharAt var1 768)))
(assert (= "#" (CharAt var10 822)))
(assert (= "r" (CharAt var31 475)))
(assert (= "g" (CharAt var31 350)))
(assert (= "~" (CharAt var40 737)))
(assert (= "B" (CharAt var38 959)))
(assert (= ";" (CharAt var30 458)))
(assert (= "4" (CharAt var29 924)))
(assert (= "V" (CharAt var25 654)))
(assert (= "F" (CharAt var57 200)))
(assert (= "f" (CharAt var56 758)))
(assert (= ":" (CharAt var6 262)))
(assert (= "E" (CharAt var26 917)))
(assert (= "n" (CharAt var13 892)))
(assert (= "5" (CharAt var22 357)))
(assert (= "w" (CharAt var47 489)))
(assert (= "g" (CharAt var41 477)))
(assert (= "P" (CharAt var0 46)))
(assert (= "C" (CharAt var15 573)))
(assert (= "C" (CharAt var19 142)))
(assert (= "t" (CharAt var19 97)))
(assert (= "?" (CharAt var8 22)))
(assert (= "K" (CharAt var14 194)))
(assert (= "h" (CharAt var7 696)))
(assert (= "[" (CharAt var15 87)))
(assert (= "S" (CharAt var20 413)))
(assert (= "L" (CharAt var49 905)))
(assert (= "7" (CharAt var31 818)))
(assert (= "U" (CharAt var52 832)))
(assert (= "M" (CharAt var34 508)))
(assert (= ";" (CharAt var48 283)))
(assert (= "0" (CharAt var28 876)))
(assert (= "K" (CharAt var50 527)))
(assert (= "," (CharAt var58 568)))
(assert (= "#" (CharAt var17 672)))
(assert (= "|" (CharAt var43 15)))
(assert (= "-" (CharAt var7 476)))
(assert (= ")" (CharAt var9 970)))
(assert (= "`" (CharAt var22 274)))
(assert (= "N" (CharAt var56 283)))
(assert (= "d" (CharAt var57 593)))
(assert (= "w" (CharAt var4 457)))
(assert (= "O" (CharAt var60 733)))
(assert (= "1" (CharAt var47 591)))
(assert (= ";" (CharAt var20 11)))
(assert (= "G" (CharAt var37 420)))
(assert (= "s" (CharAt var11 488)))
(assert (= "Z" (CharAt var52 900)))
(assert (= "=" (CharAt var52 14)))
(assert (= "7" (CharAt var45 291)))
(assert (= "f" (CharAt var32 138)))
(assert (= "s" (CharAt var12 68)))
(assert (= "u" (CharAt var29 943)))
(assert (= "@" (CharAt var3 61)))
(assert (= "c" (CharAt var48 160)))
(assert (= "9" (CharAt var13 583)))
(assert (= "D" (CharAt var42 794)))
(assert (= "R" (CharAt var32 652)))
(assert (= "D" (CharAt var7 165)))
(assert (= "2" (CharAt var23 909)))
(assert (= "{" (CharAt var21 530)))
(assert (= "5" (CharAt var34 485)))
(assert (= "B" (CharAt var25 662)))
(assert (= "i" (CharAt var42 165)))
(assert (= "*" (CharAt var12 748)))
(assert (= "-" (CharAt var19 61)))
(assert (= "O" (CharAt var19 998)))
(assert (= "M" (CharAt var18 852)))
(assert (= "Q" (CharAt var42 160)))
(assert (= "K" (CharAt var15 635)))
(assert (= "/" (CharAt var47 515)))
(assert (= "4" (CharAt var31 838)))
(assert (= "{" (CharAt var34 161)))
(assert (= "D" (CharAt var30 636)))
(assert (= "3" (CharAt var49 211)))
(assert (= ";" (CharAt var19 174)))
(assert (= "1" (CharAt var10 426)))
(assert (= ">" (CharAt var12 76)))
(assert (= "[" (CharAt var47 808)))
(assert (= "@" (CharAt var52 608)))
(assert (= "O" (CharAt var56 73)))
(assert (= "m" (CharAt var22 698)))
(assert (= "5" (CharAt var4 94)))
(assert (= "B" (CharAt var48 306)))
(assert (= "z" (CharAt var57 504)))
(assert (= "y" (CharAt var16 284)))
(assert (= "(" (CharAt var57 304)))
(assert (= "B" (CharAt var4 589)))
(assert (= "H" (CharAt var4 836)))
(assert (= "=" (CharAt var51 475)))
(assert (= "=" (CharAt var56 769)))
(assert (= "c" (CharAt var52 461)))
(assert (= "?" (CharAt var47 48)))
(assert (= "b" (CharAt var27 114)))
(assert (= "[" (CharAt var52 471)))
(assert (= "x" (CharAt var37 538)))
(assert (= "\\" (CharAt var39 804)))
(assert (= "v" (CharAt var13 823)))
(assert (= "1" (CharAt var46 499)))
(assert (= "0" (CharAt var29 139)))
(assert (= "g" (CharAt var32 804)))
(assert (= "H" (CharAt var53 732)))
(assert (= "2" (CharAt var45 627)))
(assert (= "v" (CharAt var16 588)))
(assert (= "L" (CharAt var53 337)))
(assert (= "-" (CharAt var55 67)))
(assert (= "o" (CharAt var16 900)))
(assert (= "g" (CharAt var36 207)))
(assert (= "T" (CharAt var44 425)))
(assert (= "z" (CharAt var2 146)))
(assert (= "C" (CharAt var9 511)))
(assert (= "N" (CharAt var11 174)))
(assert (= "]" (CharAt var50 546)))
(assert (= "\\" (CharAt var38 272)))
(assert (= "K" (CharAt var31 33)))
(assert (= "?" (CharAt var36 630)))
(assert (= "i" (CharAt var16 151)))
(assert (= "n" (CharAt var22 618)))
(assert (= "O" (CharAt var44 400)))
(assert (= "^" (CharAt var36 168)))
(assert (= "d" (CharAt var21 867)))
(assert (= "&" (CharAt var58 268)))
(assert (= ")" (CharAt var55 98)))
(assert (= "\"" (CharAt var53 793)))
(assert (= "~" (CharAt var4 532)))
(assert (= "A" (CharAt var41 190)))
(assert (= "Z" (CharAt var32 841)))
(assert (= "J" (CharAt var53 35)))
(assert (= "H" (CharAt var0 226)))
(assert (= "\"" (CharAt var9 377)))
(check-sat)